1 1 2 0
1 -3 4 0
1 -3 -5 0
1 3 1 0
1 2 -6 0
1 -2 1 0
1 2 7 0
1 -8 -9 0
1 -8 -2 0
1 -10 11 0
1 12 -3 0
1 -12 -1 0
1 -13 14 0
1 -15 16 0
1 -15 8 0
1 17 -18 0
1 -17 19 0
1 -17 20 0
1 -17 -5 0
1 -17 21 0
1 -18 5 0
1 18 17 0
1 -18 -22 0
1 16 4 0
1 -16 -3 0
1 16 1 0
1 4 -15 0
1 4 -17 0
1 -5 -15 0
1 5 -23 0
1 -5 24 0
1 -5 13 0
1 -14 9 0
1 -14 3 0
1 -14 1 0
1 -25 4 0
1 -25 -22 0
1 -26 27 0
1 -27 28 0
1 27 -19 0
1 -22 20 0
1 -22 29 0
1 -22 -30 0
1 -20 31 0
1 -20 17 0
1 -20 30 0
1 -32 -25 0
1 -32 33 0
1 34 35 0
1 34 36 0
1 -37 -38 0
1 -39 -40 0
1 -39 41 0
1 39 42 0
1 -39 -38 0
1 -42 -43 0
1 -35 -38 0
1 -35 21 0
1 35 44 0
1 -35 -39 0
1 -38 -44 0
1 38 39 0
1 -40 45 0
1 40 -46 0
1 -40 -47 0
1 -40 48 0
1 -40 49 0
1 40 34 0
1 -43 -50 0
1 43 51 0
1 52 -53 0
1 21 41 0
1 21 -54 0
1 -11 55 0
1 -53 11 0
1 53 52 0
1 56 -11 0
1 -41 -57 0
1 -41 58 0
1 24 56 0
1 9 -59 0
1 -9 -56 0
1 9 -60 0
1 23 61 0
1 23 53 0
1 -23 60 0
1 28 62 0
1 -28 -53 0
1 -28 6 0
1 -28 60 0
1 -28 -63 0
1 -59 9 0
1 59 -64 0
1 59 -21 0
1 59 -65 0
1 63 9 0
1 63 -11 0
1 -63 -59 0
1 -63 -66 0
1 -63 -21 0
1 63 67 0
1 54 68 0
1 54 -65 0
1 -60 68 0
1 66 61 0
1 -66 -14 0
1 69 -4 0
1 -69 -6 0
1 69 -5 0
1 69 63 0
1 33 -70 0
1 -33 59 0
1 33 -71 0
1 -33 -63 0
1 -67 19 0
1 -67 -59 0
1 67 33 0
1 67 32 0
1 67 63 0
1 -6 23 0
1 -6 -72 0
1 -61 28 0
1 -61 73 0
1 61 -74 0
1 61 -8 0
1 75 76 0
1 75 33 0
1 75 -77 0
1 -75 -65 0
1 -75 -67 0
1 75 -78 0
1 -78 73 0
1 -78 -75 0
1 78 -12 0
1 74 79 0
1 74 71 0
1 30 -70 0
1 -30 -22 0
1 -80 -79 0
1 80 72 0
1 80 -81 0
1 -80 29 0
1 72 81 0
1 71 79 0
1 -71 -33 0
1 -71 -82 0
1 -79 -83 0
1 -79 80 0
1 -79 84 0
1 85 86 0
1 -85 30 0
1 85 67 0
1 -70 14 0
1 -70 -80 0
1 -70 -87 0
1 70 -72 0
1 -70 67 0
1 88 89 0
1 -88 81 0
1 88 -71 0
1 -88 29 0
1 90 -81 0
1 90 91 0
1 92 -29 0
1 -82 79 0
1 -82 92 0
1 -82 29 0
1 29 90 0
1 -93 94 0
1 81 -89 0
1 81 -84 0
1 -81 -95 0
1 89 84 0
1 36 96 0
1 96 -37 0
1 97 -98 0
1 -99 -98 0
1 98 55 0
1 98 -100 0
1 101 -102 0
1 -101 103 0
1 -103 96 0
1 49 44 0
1 49 -104 0
1 -47 105 0
1 47 -43 0
1 47 98 0
1 51 -105 0
1 -51 -43 0
1 51 -21 0
1 -51 106 0
1 -55 40 0
1 55 105 0
1 55 -43 0
1 55 -107 0
1 108 -109 0
1 108 62 0
1 108 -110 0
1 -108 57 0
1 108 -49 0
1 110 -111 0
1 110 -97 0
1 -106 112 0
1 106 47 0
1 -106 -111 0
1 106 51 0
1 -106 -113 0
1 -105 55 0
1 105 -106 0
1 105 -111 0
1 -48 114 0
1 -46 -9 0
1 -46 -112 0
1 -46 48 0
1 -46 107 0
1 57 -62 0
1 -57 -115 0
1 57 -110 0
1 57 116 0
1 -62 -28 0
1 62 -108 0
1 -117 118 0
1 117 62 0
1 -117 119 0
1 -117 120 0
1 -121 122 0
1 121 -123 0
1 -107 109 0
1 107 111 0
1 107 -123 0
1 124 -48 0
1 124 -51 0
1 68 50 0
1 -118 -109 0
1 -118 -45 0
1 -118 54 0
1 118 -121 0
1 119 121 0
1 -119 -60 0
1 119 120 0
1 120 115 0
1 -120 119 0
1 -120 121 0
1 115 125 0
1 -115 -57 0
1 115 126 0
1 115 -65 0
1 127 -76 0
1 -127 -65 0
1 -127 120 0
1 45 -128 0
1 -45 129 0
1 45 -50 0
1 45 123 0
1 -50 -118 0
1 -50 -62 0
1 50 -45 0
1 130 74 0
1 -65 115 0
1 -65 131 0
1 65 -59 0
1 -76 -131 0
1 76 -132 0
1 -76 -133 0
1 -76 134 0
1 -126 -75 0
1 -126 127 0
1 -132 130 0
1 -132 -135 0
1 134 -132 0
1 -131 -136 0
1 133 137 0
1 -133 135 0
1 73 61 0
1 73 -138 0
1 73 64 0
1 -91 75 0
1 91 -6 0
1 -91 -78 0
1 -139 -70 0
1 -139 -132 0
1 87 138 0
1 87 77 0
1 -87 140 0
1 -87 -141 0
1 -64 142 0
1 64 73 0
1 -64 -143 0
1 -143 139 0
1 143 144 0
1 -143 84 0
1 143 63 0
1 138 76 0
1 -138 145 0
1 -138 -126 0
1 -146 -147 0
1 146 -137 0
1 -146 139 0
1 146 -73 0
1 83 -143 0
1 -84 77 0
1 142 -77 0
1 -142 -81 0
1 -142 143 0
1 144 77 0
1 -144 -141 0
1 -140 -148 0
1 149 61 0
1 149 -142 0
1 149 -150 0
1 -149 -84 0
1 -149 -87 0
1 77 -150 0
1 77 151 0
1 141 -152 0
1 -141 -153 0
1 141 142 0
1 141 150 0
1 141 154 0
1 -141 87 0
1 141 -155 0
1 141 -78 0
1 -156 -157 0
1 158 149 0
1 -158 159 0
1 -158 -157 0
1 160 -159 0
1 160 161 0
1 -160 -95 0
1 160 -162 0
1 -148 -149 0
1 -148 154 0
1 157 -156 0
1 -157 163 0
1 157 164 0
1 157 165 0
1 -159 79 0
1 -159 166 0
1 -86 163 0
1 -167 142 0
1 -168 157 0
1 169 -159 0
1 -169 -95 0
1 -165 170 0
1 164 95 0
1 -162 171 0
1 162 -148 0
1 162 -172 0
1 -162 -160 0
1 94 -169 0
1 95 -163 0
1 -95 169 0
1 -95 -173 0
1 -95 -174 0
1 -95 -165 0
1 -161 -164 0
1 161 -95 0
1 -161 166 0
1 161 -168 0
1 -175 176 0
1 -175 -177 0
1 178 -179 0
1 -178 -180 0
1 179 -181 0
1 181 -182 0
1 -181 -104 0
1 -183 -184 0
1 183 185 0
1 183 -186 0
1 183 178 0
1 -176 -187 0
1 -176 -188 0
1 -176 189 0
1 176 -178 0
1 -176 -190 0
1 -189 -185 0
1 189 -191 0
1 189 -192 0
1 104 -103 0
1 104 -181 0
1 104 193 0
1 -194 -47 0
1 -194 193 0
1 194 101 0
1 -194 -180 0
1 -195 196 0
1 -195 181 0
1 195 -197 0
1 195 -191 0
1 184 -103 0
1 184 55 0
1 184 193 0
1 184 101 0
1 -197 -178 0
1 -197 -198 0
1 -198 -199 0
1 -198 114 0
1 -198 178 0
1 193 -200 0
1 180 179 0
1 -180 195 0
1 -114 -112 0
1 -114 201 0
1 114 106 0
1 -112 103 0
1 -112 202 0
1 116 203 0
1 -204 -205 0
1 204 -106 0
1 -201 -204 0
1 201 -114 0
1 206 -201 0
1 -206 -114 0
1 206 -207 0
1 -202 -196 0
1 202 -200 0
1 -202 -184 0
1 -202 -195 0
1 196 -208 0
1 -196 195 0
1 111 -109 0
1 -111 203 0
1 -111 -124 0
1 -111 -209 0
1 109 118 0
1 -109 -203 0
1 -109 110 0
1 210 -206 0
1 -210 205 0
1 210 203 0
1 -210 211 0
1 207 -203 0
1 -207 211 0
1 207 212 0
1 209 109 0
1 -209 213 0
1 -203 213 0
1 102 214 0
1 -205 215 0
1 205 -216 0
1 205 207 0
1 -122 121 0
1 -122 50 0
1 -122 -113 0
1 -123 117 0
1 -123 -217 0
1 -123 122 0
1 123 -113 0
1 218 -45 0
1 -218 -50 0
1 218 -113 0
1 -219 50 0
1 -219 113 0
1 212 220 0
1 212 218 0
1 212 -221 0
1 -212 108 0
1 -212 -222 0
1 -211 -136 0
1 -211 122 0
1 -211 -210 0
1 -211 -223 0
1 -211 -224 0
1 211 219 0
1 -211 212 0
1 -113 219 0
1 217 -105 0
1 -217 -122 0
1 217 -123 0
1 -129 225 0
1 -129 226 0
1 129 224 0
1 -224 -45 0
1 -224 -226 0
1 224 -133 0
1 -136 128 0
1 136 -139 0
1 -136 -227 0
1 -223 131 0
1 223 -211 0
1 -223 228 0
1 229 117 0
1 229 137 0
1 -229 -129 0
1 -226 -229 0
1 226 219 0
1 227 -230 0
1 -227 231 0
1 -227 129 0
1 -227 232 0
1 227 233 0
1 227 219 0
1 225 -124 0
1 225 -233 0
1 -137 -83 0
1 137 -131 0
1 -137 125 0
1 -135 137 0
1 -135 -221 0
1 147 138 0
1 147 -234 0
1 147 -146 0
1 235 125 0
1 -235 -236 0
1 125 147 0
1 -125 -137 0
1 -125 -145 0
1 125 223 0
1 125 -237 0
1 236 153 0
1 236 -137 0
1 -236 -125 0
1 -236 -136 0
1 128 -238 0
1 -128 147 0
1 -128 239 0
1 -128 235 0
1 128 -240 0
1 -240 -136 0
1 240 50 0
1 -153 156 0
1 -153 -241 0
1 -153 -143 0
1 145 242 0
1 -145 -234 0
1 145 -146 0
1 -145 141 0
1 237 238 0
1 237 -243 0
1 -237 244 0
1 154 -236 0
1 -241 -145 0
1 -241 -170 0
1 -234 235 0
1 234 -245 0
1 -246 -154 0
1 246 -247 0
1 242 -133 0
1 242 248 0
1 155 150 0
1 155 -234 0
1 155 -141 0
1 170 165 0
1 170 -249 0
1 -250 -167 0
1 -250 241 0
1 -250 -151 0
1 250 249 0
1 251 64 0
1 251 -252 0
1 -251 170 0
1 249 -154 0
1 -249 251 0
1 -249 143 0
1 -243 253 0
1 244 253 0
1 -244 254 0
1 244 155 0
1 166 -152 0
1 -166 86 0
1 -166 157 0
1 -163 -255 0
1 -163 -167 0
1 -163 151 0
1 -163 -256 0
1 174 255 0
1 -174 251 0
1 174 256 0
1 257 -251 0
1 -257 -258 0
1 257 -174 0
1 257 -249 0
1 -256 257 0
1 256 250 0
1 -256 173 0
1 256 259 0
1 255 250 0
1 -151 -253 0
1 151 257 0
1 -151 163 0
1 151 -250 0
1 151 -252 0
1 -151 -174 0
1 -152 250 0
1 -152 260 0
1 -152 -261 0
1 173 171 0
1 173 -161 0
1 171 -262 0
1 -171 -263 0
1 -264 -265 0
1 -266 -262 0
1 266 -258 0
1 -266 -263 0
1 266 265 0
1 -263 266 0
1 -263 -267 0
1 -263 -174 0
1 267 257 0
1 267 268 0
1 -258 266 0
1 258 257 0
1 -258 -264 0
1 258 174 0
1 -262 -257 0
1 -262 -269 0
1 262 -258 0
1 -262 -270 0
1 -271 -272 0
1 -268 272 0
1 -268 271 0
1 -273 267 0
1 273 -274 0
1 -273 275 0
1 275 270 0
1 172 -274 0
1 -172 -271 0
1 -172 276 0
1 -274 -266 0
1 274 -94 0
1 -274 277 0
1 -274 273 0
1 -265 272 0
1 265 269 0
1 -272 264 0
1 -272 278 0
1 272 -279 0
1 177 280 0
1 177 281 0
1 -282 283 0
1 -282 280 0
1 -283 -284 0
1 283 280 0
1 -283 281 0
1 283 285 0
1 -284 -286 0
1 -284 -187 0
1 284 -281 0
1 -281 177 0
1 281 -192 0
1 287 -282 0
1 287 288 0
1 280 -283 0
1 280 177 0
1 -192 -176 0
1 -192 -289 0
1 290 194 0
1 -191 284 0
1 191 187 0
1 -191 -281 0
1 191 -285 0
1 -187 284 0
1 -187 291 0
1 187 -191 0
1 292 293 0
1 -292 -182 0
1 -285 294 0
1 -285 283 0
1 285 -295 0
1 296 297 0
1 -296 -298 0
1 -296 187 0
1 289 -187 0
1 -289 191 0
1 185 -299 0
1 -185 -182 0
1 -182 300 0
1 182 -176 0
1 182 -291 0
1 -295 188 0
1 295 -291 0
1 -294 -292 0
1 -294 -188 0
1 -294 -193 0
1 -294 291 0
1 -300 -301 0
1 300 200 0
1 -300 -187 0
1 300 -302 0
1 -302 191 0
1 299 297 0
1 -299 185 0
1 299 191 0
1 -291 297 0
1 291 303 0
1 199 -193 0
1 199 302 0
1 200 197 0
1 200 202 0
1 200 -199 0
1 -304 196 0
1 304 210 0
1 -304 302 0
1 -304 305 0
1 -304 -186 0
1 -301 -306 0
1 301 -202 0
1 301 305 0
1 301 -307 0
1 301 207 0
1 -308 -301 0
1 308 -295 0
1 308 186 0
1 186 -304 0
1 186 -295 0
1 186 -309 0
1 188 200 0
1 -188 176 0
1 188 -304 0
1 188 305 0
1 -188 310 0
1 305 301 0
1 -305 188 0
1 -305 -199 0
1 305 -295 0
1 -305 311 0
1 216 205 0
1 216 -306 0
1 -216 312 0
1 309 -313 0
1 -309 312 0
1 314 315 0
1 -314 -205 0
1 314 -218 0
1 -314 -316 0
1 314 -307 0
1 317 315 0
1 -312 -318 0
1 312 314 0
1 312 319 0
1 313 320 0
1 -313 314 0
1 306 320 0
1 -306 317 0
1 307 320 0
1 -307 314 0
1 307 -321 0
1 -307 -322 0
1 -307 309 0
1 -307 323 0
1 213 315 0
1 -213 324 0
1 319 205 0
1 319 -217 0
1 -319 -213 0
1 -318 215 0
1 318 136 0
1 228 -217 0
1 -228 316 0
1 228 -223 0
1 -316 -315 0
1 -316 228 0
1 316 319 0
1 315 325 0
1 315 -213 0
1 315 228 0
1 -324 208 0
1 -208 196 0
1 208 -325 0
1 -208 326 0
1 -208 -324 0
1 -221 316 0
1 -221 -113 0
1 -221 227 0
1 -231 327 0
1 -231 225 0
1 -231 233 0
1 231 -222 0
1 233 -222 0
1 328 329 0
1 328 221 0
1 328 -228 0
1 328 330 0
1 331 -329 0
1 331 -332 0
1 -331 -228 0
1 -214 -233 0
1 214 -228 0
1 -214 333 0
1 -215 334 0
1 215 326 0
1 329 -325 0
1 -329 331 0
1 329 -226 0
1 329 -222 0
1 232 -229 0
1 232 -225 0
1 238 -237 0
1 -239 331 0
1 -239 -327 0
1 -239 335 0
1 239 336 0
1 -239 -328 0
1 -222 329 0
1 222 -337 0
1 338 231 0
1 -339 -329 0
1 -339 -340 0
1 -339 -341 0
1 -339 332 0
1 339 -232 0
1 327 -217 0
1 327 342 0
1 -343 -344 0
1 343 -236 0
1 345 -230 0
1 -337 344 0
1 337 -346 0
1 337 -341 0
1 -337 -347 0
1 -337 -222 0
1 344 348 0
1 -344 349 0
1 336 -349 0
1 336 343 0
1 336 -247 0
1 -230 340 0
1 -230 -239 0
1 -230 -335 0
1 -230 350 0
1 230 -342 0
1 335 340 0
1 -335 225 0
1 247 344 0
1 247 -346 0
1 -247 347 0
1 -349 344 0
1 349 -234 0
1 -349 -246 0
1 254 -351 0
1 254 347 0
1 352 344 0
1 352 243 0
1 352 -248 0
1 -352 -245 0
1 -346 -353 0
1 -346 -252 0
1 346 -254 0
1 -354 352 0
1 354 -349 0
1 354 337 0
1 -354 -353 0
1 -354 247 0
1 355 -128 0
1 -355 345 0
1 -347 -349 0
1 -347 -337 0
1 -347 -345 0
1 -252 152 0
1 252 346 0
1 -252 356 0
1 252 -151 0
1 -252 354 0
1 -253 171 0
1 253 356 0
1 253 -354 0
1 253 -249 0
1 261 346 0
1 261 356 0
1 -261 -351 0
1 -261 357 0
1 -261 -354 0
1 358 -359 0
1 358 -360 0
1 358 -361 0
1 351 -358 0
1 -351 362 0
1 351 -363 0
1 351 -364 0
1 -351 -245 0
1 -245 352 0
1 -245 270 0
1 -356 -352 0
1 -356 -254 0
1 -356 -248 0
1 248 365 0
1 248 366 0
1 -367 -255 0
1 367 359 0
1 367 245 0
1 367 -268 0
1 -364 -359 0
1 364 -361 0
1 270 -368 0
1 369 -370 0
1 361 370 0
1 -361 -260 0
1 -361 -278 0
1 -359 -371 0
1 -359 -372 0
1 -359 -260 0
1 360 358 0
1 -360 359 0
1 -360 -364 0
1 -360 -261 0
1 -360 -373 0
1 269 272 0
1 269 -363 0
1 -269 263 0
1 279 -374 0
1 279 269 0
1 -370 375 0
1 370 376 0
1 -278 -377 0
1 259 -378 0
1 -259 -278 0
1 -259 279 0
1 -259 270 0
1 -374 255 0
1 -374 -379 0
1 374 380 0
1 -381 382 0
1 -368 -152 0
1 368 -383 0
1 368 371 0
1 -368 269 0
1 -384 385 0
1 384 272 0
1 384 259 0
1 378 374 0
1 386 385 0
1 -386 -377 0
1 380 -385 0
1 375 -387 0
1 375 -378 0
1 -375 -278 0
1 -377 384 0
1 -377 388 0
1 -377 -378 0
1 385 378 0
1 385 278 0
1 -389 -382 0
1 389 -387 0
1 387 -389 0
1 -387 390 0
1 387 276 0
1 -391 -390 0
1 -392 -375 0
1 392 -388 0
1 -392 390 0
1 -276 387 0
1 390 -391 0
1 390 386 0
1 390 -387 0
1 -393 -272 0
1 -394 -395 0
1 -394 289 0
1 394 288 0
1 -297 299 0
1 -297 394 0
1 396 397 0
1 -396 -291 0
1 398 -284 0
1 -398 -311 0
1 399 281 0
1 399 311 0
1 -288 400 0
1 401 398 0
1 -401 -397 0
1 401 -291 0
1 401 302 0
1 -401 305 0
1 401 -311 0
1 311 -401 0
1 -311 402 0
1 403 404 0
1 310 398 0
1 310 -293 0
1 310 -404 0
1 -310 397 0
1 293 405 0
1 293 -406 0
1 -293 -407 0
1 -293 403 0
1 402 285 0
1 -402 408 0
1 402 310 0
1 402 311 0
1 298 396 0
1 298 -310 0
1 -397 -298 0
1 -397 -406 0
1 397 403 0
1 397 -311 0
1 -407 -293 0
1 407 -213 0
1 -407 -188 0
1 407 409 0
1 322 404 0
1 -322 -186 0
1 -410 -318 0
1 410 -411 0
1 -410 412 0
1 -410 -307 0
1 -411 -404 0
1 -411 413 0
1 411 414 0
1 -411 -402 0
1 -411 228 0
1 411 412 0
1 413 415 0
1 413 320 0
1 413 -410 0
1 409 -416 0
1 -409 320 0
1 -409 410 0
1 409 417 0
1 409 -411 0
1 -409 -322 0
1 404 -416 0
1 -404 418 0
1 419 -416 0
1 419 420 0
1 419 -406 0
1 419 403 0
1 419 -421 0
1 -320 220 0
1 320 -312 0
1 -321 312 0
1 -321 324 0
1 415 -414 0
1 -415 -324 0
1 415 -422 0
1 423 -415 0
1 -423 424 0
1 -423 425 0
1 414 -423 0
1 -412 410 0
1 412 414 0
1 -412 -426 0
1 -412 326 0
1 -412 -423 0
1 -427 -410 0
1 -427 -188 0
1 427 -421 0
1 -427 -422 0
1 -422 305 0
1 325 208 0
1 325 -428 0
1 325 412 0
1 -325 -323 0
1 326 429 0
1 326 215 0
1 -326 -424 0
1 -326 -323 0
1 -430 215 0
1 -334 414 0
1 334 431 0
1 -334 214 0
1 334 -412 0
1 424 -325 0
1 429 430 0
1 -429 432 0
1 429 -341 0
1 429 332 0
1 429 334 0
1 429 -424 0
1 429 -433 0
1 -428 426 0
1 -428 -326 0
1 428 -323 0
1 -323 430 0
1 323 -434 0
1 323 -334 0
1 -330 429 0
1 -330 215 0
1 332 431 0
1 433 -435 0
1 -433 436 0
1 -433 437 0
1 -433 345 0
1 -341 -429 0
1 -341 -438 0
1 436 430 0
1 -436 439 0
1 436 341 0
1 -436 316 0
1 436 440 0
1 438 430 0
1 -438 -340 0
1 438 334 0
1 -438 330 0
1 -431 -441 0
1 431 -334 0
1 431 442 0
1 -431 -330 0
1 443 -444 0
1 -342 445 0
1 342 -435 0
1 -342 -333 0
1 -342 -446 0
1 -342 -339 0
1 -342 222 0
1 340 438 0
1 -340 445 0
1 340 -327 0
1 -340 -339 0
1 447 445 0
1 -447 333 0
1 -447 -448 0
1 -447 -254 0
1 -447 449 0
1 -439 230 0
1 439 445 0
1 439 -436 0
1 -439 -449 0
1 -437 450 0
1 -437 439 0
1 437 435 0
1 -333 451 0
1 -333 342 0
1 445 -341 0
1 -445 -451 0
1 -445 -333 0
1 445 433 0
1 -350 344 0
1 350 -355 0
1 -350 -347 0
1 452 -253 0
1 -452 444 0
1 452 336 0
1 -357 -448 0
1 453 448 0
1 -453 -449 0
1 -449 -350 0
1 449 -447 0
1 -448 -454 0
1 -448 338 0
1 -455 453 0
1 455 -452 0
1 455 -339 0
1 -455 -456 0
1 -455 457 0
1 458 -453 0
1 -458 327 0
1 -458 357 0
1 -353 448 0
1 353 -347 0
1 -454 355 0
1 -454 -459 0
1 454 347 0
1 365 -460 0
1 -365 461 0
1 -365 462 0
1 -365 -364 0
1 -365 -459 0
1 -463 464 0
1 -463 -459 0
1 -348 376 0
1 348 -366 0
1 -465 376 0
1 -465 -366 0
1 -460 466 0
1 460 353 0
1 -459 -454 0
1 -459 466 0
1 -459 365 0
1 -459 463 0
1 363 356 0
1 363 -269 0
1 -363 -359 0
1 363 -245 0
1 366 462 0
1 -366 356 0
1 366 279 0
1 -366 360 0
1 -376 -467 0
1 -376 -468 0
1 462 469 0
1 -462 -470 0
1 462 -467 0
1 -462 -373 0
1 -462 -366 0
1 462 463 0
1 -467 373 0
1 -467 -366 0
1 461 -471 0
1 -461 -363 0
1 461 472 0
1 461 -366 0
1 -473 -474 0
1 473 -475 0
1 -371 381 0
1 371 373 0
1 -373 -368 0
1 373 467 0
1 373 -362 0
1 -373 359 0
1 373 -475 0
1 383 368 0
1 383 462 0
1 -383 362 0
1 383 476 0
1 -470 477 0
1 478 -373 0
1 -477 469 0
1 -477 -383 0
1 477 -479 0
1 -468 -480 0
1 468 248 0
1 382 374 0
1 382 -389 0
1 382 -362 0
1 -382 -481 0
1 379 -381 0
1 379 -387 0
1 379 478 0
1 388 -478 0
1 476 -382 0
1 -482 -383 0
1 -372 382 0
1 372 359 0
1 -481 379 0
1 -408 -400 0
1 -408 -298 0
1 408 321 0
1 420 -405 0
1 425 419 0
1 483 421 0
1 -483 -408 0
1 -484 -416 0
1 -484 485 0
1 -400 486 0
1 486 400 0
1 416 -487 0
1 416 -421 0
1 421 487 0
1 -421 -488 0
1 -489 430 0
1 -489 490 0
1 489 -422 0
1 -491 483 0
1 491 488 0
1 -491 417 0
1 405 416 0
1 -405 -421 0
1 -492 -493 0
1 -492 -489 0
1 492 -416 0
1 492 -494 0
1 -492 402 0
1 -492 -425 0
1 -487 -495 0
1 -488 -496 0
1 488 495 0
1 426 427 0
1 -426 492 0
1 426 497 0
1 498 -490 0
1 -498 -492 0
1 -498 323 0
1 -494 -499 0
1 -494 497 0
1 490 -493 0
1 490 -432 0
1 490 417 0
1 490 -498 0
1 417 -446 0
1 418 493 0
1 -418 426 0
1 418 -498 0
1 -446 500 0
1 -446 -501 0
1 -446 417 0
1 446 502 0
1 -432 443 0
1 432 501 0
1 -503 443 0
1 503 441 0
1 503 -504 0
1 -503 500 0
1 -503 502 0
1 441 -490 0
1 -441 505 0
1 499 -432 0
1 499 414 0
1 -499 506 0
1 -502 -444 0
1 502 507 0
1 501 -508 0
1 -500 -508 0
1 500 503 0
1 500 509 0
1 -500 498 0
1 440 -443 0
1 -440 -438 0
1 -440 -431 0
1 -440 -333 0
1 444 -443 0
1 -444 -438 0
1 -444 502 0
1 -451 510 0
1 -451 -511 0
1 -451 -499 0
1 -512 434 0
1 512 -510 0
1 512 -505 0
1 512 -513 0
1 512 -442 0
1 512 -502 0
1 513 510 0
1 -513 451 0
1 -510 -444 0
1 -510 -514 0
1 505 -441 0
1 505 515 0
1 -434 516 0
1 -434 -507 0
1 -517 -510 0
1 -517 511 0
1 517 518 0
1 517 507 0
1 450 -511 0
1 -450 518 0
1 -450 519 0
1 -450 -333 0
1 -450 455 0
1 514 -520 0
1 514 455 0
1 -464 458 0
1 464 514 0
1 519 -466 0
1 519 514 0
1 519 521 0
1 518 -438 0
1 -442 522 0
1 442 -523 0
1 511 -443 0
1 -511 514 0
1 -511 -524 0
1 -525 460 0
1 -525 518 0
1 -525 363 0
1 -525 -526 0
1 525 455 0
1 525 -456 0
1 -456 518 0
1 456 -459 0
1 466 -523 0
1 -466 527 0
1 466 -528 0
1 528 -529 0
1 -528 -459 0
1 -528 -480 0
1 -528 -524 0
1 530 -464 0
1 530 -471 0
1 530 -531 0
1 -530 525 0
1 531 532 0
1 -531 -514 0
1 -531 472 0
1 -533 -532 0
1 533 522 0
1 -533 466 0
1 533 -534 0
1 -520 532 0
1 -520 525 0
1 -520 -533 0
1 471 348 0
1 471 -459 0
1 -471 465 0
1 -471 530 0
1 475 348 0
1 -475 529 0
1 -475 473 0
1 -475 535 0
1 475 -457 0
1 536 -537 0
1 -536 461 0
1 -536 -531 0
1 -536 472 0
1 -536 530 0
1 472 537 0
1 472 538 0
1 472 457 0
1 -537 472 0
1 537 475 0
1 527 -536 0
1 -527 -471 0
1 -527 -448 0
1 527 479 0
1 527 475 0
1 -457 -539 0
1 457 471 0
1 -457 -472 0
1 457 -455 0
1 529 -536 0
1 529 466 0
1 529 540 0
1 469 462 0
1 -469 473 0
1 -469 -467 0
1 -474 537 0
1 474 541 0
1 474 -542 0
1 474 379 0
1 -543 -544 0
1 543 -545 0
1 -543 539 0
1 479 -544 0
1 479 546 0
1 -479 -527 0
1 -479 -388 0
1 542 -543 0
1 -544 -479 0
1 -495 -487 0
1 -495 418 0
1 495 -547 0
1 495 -485 0
1 -504 -548 0
1 504 549 0
1 -504 -503 0
1 548 -547 0
1 -550 -551 0
1 550 -496 0
1 -550 -495 0
1 -485 -552 0
1 485 495 0
1 -553 400 0
1 -553 554 0
1 -553 -548 0
1 553 -547 0
1 553 -495 0
1 -552 550 0
1 552 555 0
1 552 556 0
1 -552 557 0
1 552 -451 0
1 552 -500 0
1 -551 512 0
1 551 -558 0
1 551 -500 0
1 -555 551 0
1 -555 -405 0
1 555 -552 0
1 555 -504 0
1 559 -508 0
1 -559 560 0
1 559 507 0
1 559 492 0
1 -559 -561 0
1 -562 504 0
1 549 551 0
1 -549 488 0
1 -549 563 0
1 507 434 0
1 -507 508 0
1 507 -556 0
1 -507 -500 0
1 -508 -558 0
1 -508 -502 0
1 516 557 0
1 516 -506 0
1 -557 524 0
1 558 564 0
1 556 -565 0
1 566 516 0
1 566 556 0
1 -566 -552 0
1 -566 -565 0
1 526 434 0
1 526 -511 0
1 526 -506 0
1 526 442 0
1 526 -558 0
1 -567 526 0
1 567 513 0
1 -567 558 0
1 -523 568 0
1 523 511 0
1 -523 -557 0
1 -523 -466 0
1 523 -515 0
1 524 -568 0
1 524 528 0
1 524 569 0
1 -506 -522 0
1 506 526 0
1 506 535 0
1 506 -567 0
1 -569 -516 0
1 -569 522 0
1 -569 -506 0
1 569 524 0
1 -570 -524 0
1 509 516 0
1 509 -571 0
1 509 -564 0
1 -509 -523 0
1 -509 -572 0
1 509 -567 0
1 522 -511 0
1 -522 520 0
1 522 564 0
1 535 511 0
1 535 506 0
1 535 -442 0
1 -535 573 0
1 535 -569 0
1 574 568 0
1 574 520 0
1 -574 575 0
1 574 538 0
1 -538 576 0
1 538 -577 0
1 -577 524 0
1 578 534 0
1 515 568 0
1 515 579 0
1 -515 -523 0
1 515 -505 0
1 515 -580 0
1 -568 579 0
1 568 515 0
1 -568 538 0
1 -532 -469 0
1 -532 -581 0
1 532 -521 0
1 -532 457 0
1 -534 -578 0
1 534 520 0
1 -534 -531 0
1 -534 -529 0
1 539 575 0
1 539 457 0
1 -540 577 0
1 575 518 0
1 581 -539 0
1 -581 -538 0
1 -576 -539 0
1 582 -559 0
1 582 566 0
1 563 -566 0
1 583 -584 0
1 583 585 0
1 583 -586 0
1 587 564 0
1 -587 583 0
1 587 588 0
1 586 -587 0
1 586 564 0
1 -586 588 0
1 554 582 0
1 -554 565 0
1 589 554 0
1 -564 -556 0
1 -564 -522 0
1 564 -558 0
1 -573 587 0
1 -573 584 0
1 -573 -585 0
1 -573 561 0
1 -573 570 0
1 -590 -591 0
1 590 -592 0
1 588 -587 0
1 -588 -585 0
1 588 -509 0
1 -585 579 0
1 -585 -590 0
1 585 -564 0
1 585 -593 0
1 585 573 0
1 -585 -565 0
1 561 -571 0
1 561 -585 0
1 -561 593 0
1 561 559 0
1 -561 588 0
1 584 583 0
1 594 588 0
1 594 573 0
1 -571 506 0
1 571 515 0
1 -580 506 0
1 580 534 0
1 580 -561 0
1 580 -509 0
1 -579 -595 0
1 593 -585 0
1 -593 596 0
1 -596 -579 0
1 -596 -557 0
1 596 -588 0
1 596 -595 0
1 595 590 0
1 -591 -580 0
1 592 579 0
1 -592 -566 0
